
Gurobi 9.1.2 (win64, Java) logging started Fri Nov 12 12:13:01 2021

Academic license - for non-commercial use only - expires 2022-10-30
Gurobi Optimizer version 9.1.2 build v9.1.2rc0 (win64)
Thread count: 6 physical cores, 12 logical processors, using up to 12 threads
Optimize a model with 40 rows, 400 columns and 800 nonzeros
Model fingerprint: 0x693b4030
Variable types: 0 continuous, 400 integer (400 binary)
Coefficient statistics:
  Matrix range     [1e+00, 1e+03]
  Objective range  [2e+02, 9e+02]
  Bounds range     [1e+00, 1e+00]
  RHS range        [1e+00, 5e+02]
Found heuristic solution: objective 2612.0000000
Presolve removed 20 rows and 333 columns
Presolve time: 0.01s
Presolved: 20 rows, 67 columns, 133 nonzeros
Variable types: 0 continuous, 67 integer (67 binary)
Presolve removed 0 rows and 1 columns
Presolved: 20 rows, 66 columns, 131 nonzeros


Root relaxation: objective 3.068000e+03, 19 iterations, 0.01 seconds

    Nodes    |    Current Node    |     Objective Bounds      |     Work
 Expl Unexpl |  Obj  Depth IntInf | Incumbent    BestBd   Gap | It/Node Time

*    0     0               0    3068.0000000 3068.00000  0.00%     -    0s

Explored 0 nodes (19 simplex iterations) in 0.03 seconds
Thread count was 12 (of 12 available processors)

Solution count 2: 3068 2612 

Optimal solution found (tolerance 1.00e-12)
Best objective 3.068000000000e+03, best bound 3.068000000000e+03, gap 0.0000%
